\ This file was automatically generated by Zimpl
\ var w1 <= 0;
\ var w2 <= 0;
\ minimize Z :     25*w1 + 20*w2;
\ subto r1:     6*w1 + 3*w2 >= 3;
\ subto r2:     3*w1 + 4*w2 >= 1;
\ subto r3:     5*w1 + 5*w2 >= 4;
\Problem name: pd
Minimize
 Z:  +25 w1 +20 w2
Subject to
 r1_1:
  +3 w2 +6 w1 >= 3
 r2_1:
  +4 w2 +3 w1 >= 1
 r3_1:
  +5 w2 +5 w1 >= 4
Bounds
 w1 = 0
 w2 = 0
End
